; benchmark generated from python API
(set-info :status unknown)
(declare-datatypes ((IntState 0)) (((Mk1 (val1 Int)) (Mk2 (val2 Int)))))
 (declare-fun c_main_~x~0 () Int)
(declare-fun c_main_~y~0 () Int)
(assert
 (let (($x52 (exists ((|v_main_#t~nondet0_5_st| IntState) (val!144 Int) )(let (($x112 (not (= |v_main_#t~nondet0_5_st| (Mk1 val!144)))))
 (and $x112 (= (+ (* 2 (val2 |v_main_#t~nondet0_5_st|)) 1) c_main_~x~0))))
 ))
 (let (($x14 (exists ((|v_main_#t~nondet1_5_st| IntState) (val!143 Int) )(let (($x112 (not (= |v_main_#t~nondet1_5_st| (Mk1 val!143)))))
 (and $x112 (= (+ (* 2 (val2 |v_main_#t~nondet1_5_st|)) 1) c_main_~y~0))))
 ))
 (let (($x181 (exists ((|v_main_#t~nondet0_7| Int) )(exists ((|v_main_#t~nondet0_8| Int) )(exists ((|v_main_#t~nondet0_5| Int) )(exists ((|v_main_#t~nondet0_6| Int) )(let ((?x175 (* 2 |v_main_#t~nondet0_6|)))
 (let ((?x123 (* 2 |v_main_#t~nondet0_5|)))
 (let ((?x12 (* 2 |v_main_#t~nondet0_8|)))
 (let ((?x172 (* 2 |v_main_#t~nondet0_7|)))
 (let ((?x225 (+ ?x172 ?x12 ?x123 ?x175 1)))
 (= ?x225 c_main_~x~0)))))))
 )
 )
 )
 ))
 (let (($x70 (exists ((|v_main_#t~nondet1_8| Int) )(exists ((|v_main_#t~nondet1_6| Int) )(exists ((|v_main_#t~nondet1_7| Int) )(exists ((|v_main_#t~nondet1_5| Int) )(let ((?x175 (* 2 |v_main_#t~nondet1_5|)))
 (let ((?x123 (* 2 |v_main_#t~nondet1_7|)))
 (let ((?x12 (* 2 |v_main_#t~nondet1_6|)))
 (let ((?x172 (* 2 |v_main_#t~nondet1_8|)))
 (let ((?x225 (+ ?x172 ?x12 ?x123 ?x175 1)))
 (= ?x225 c_main_~y~0)))))))
 )
 )
 )
 ))
 (and (and $x70 $x181) (not (and $x14 $x52))))))))
(check-sat)
